NAME check/instances/gap/gap4_2.txt
ROWS  
 N Obj        
 E m_job_;1;        
 E m_job_;2;        
 E m_job_;3;        
 E m_job_;4;        
 E m_job_;5;        
 E m_job_;6;        
 E m_job_;7;        
 E m_job_;8;        
 E m_job_;9;        
 E m_job_;10;        
 E m_job_;11;        
 E m_job_;12;        
 E m_job_;13;        
 E m_job_;14;        
 E m_job_;15;        
 E m_job_;16;        
 E m_job_;17;        
 E m_job_;18;        
 E m_job_;19;        
 E m_job_;20;        
 E m_job_;21;        
 E m_job_;22;        
 E m_job_;23;        
 E m_job_;24;        
 E m_job_;25;        
 E m_job_;26;        
 E m_job_;27;        
 E m_job_;28;        
 E m_job_;29;        
 E m_job_;30;        
 L b_capa_;1;        
 L b_capa_;2;        
 L b_capa_;3;        
 L b_capa_;4;        
 L b_capa_;5;        
COLUMNS  
   INTSTART 'MARKER'   'INTORG'  
   x#1#1 Obj -16 m_job_;1; 1
   x#1#1 b_capa_;1; 7    
   x#1#2 Obj -16 m_job_;2; 1
   x#1#2 b_capa_;1; 10    
   x#1#3 b_capa_;1; 9 Obj -13
   x#1#3 m_job_;3; 1    
   x#1#4 Obj -20 m_job_;4; 1
   x#1#4 b_capa_;1; 13    
   x#1#5 m_job_;5; 1 b_capa_;1; 22
   x#1#5 Obj -22    
   x#1#6 Obj -24 m_job_;6; 1
   x#1#6 b_capa_;1; 18    
   x#1#7 Obj -15 m_job_;7; 1
   x#1#7 b_capa_;1; 19    
   x#1#8 b_capa_;1; 17 Obj -25
   x#1#8 m_job_;8; 1    
   x#1#9 m_job_;9; 1 Obj -18
   x#1#9 b_capa_;1; 18    
   x#1#10 m_job_;10; 1 b_capa_;1; 15
   x#1#10 Obj -25    
   x#1#11 m_job_;11; 1 Obj -11
   x#1#11 b_capa_;1; 5    
   x#1#12 b_capa_;1; 9 Obj -19
   x#1#12 m_job_;12; 1    
   x#1#13 b_capa_;1; 11 m_job_;13; 1
   x#1#13 Obj -20    
   x#1#14 b_capa_;1; 18 m_job_;14; 1
   x#1#14 Obj -21    
   x#1#15 Obj -17 b_capa_;1; 21
   x#1#15 m_job_;15; 1    
   x#1#16 b_capa_;1; 20 Obj -16
   x#1#16 m_job_;16; 1    
   x#1#17 Obj -16 m_job_;17; 1
   x#1#17 b_capa_;1; 19    
   x#1#18 m_job_;18; 1 b_capa_;1; 21
   x#1#18 Obj -21    
   x#1#19 b_capa_;1; 21 Obj -17
   x#1#19 m_job_;19; 1    
   x#1#20 Obj -13 m_job_;20; 1
   x#1#20 b_capa_;1; 7    
   x#1#21 m_job_;21; 1 b_capa_;1; 23
   x#1#21 Obj -13    
   x#1#22 b_capa_;1; 24 m_job_;22; 1
   x#1#22 Obj -17    
   x#1#23 b_capa_;1; 15 m_job_;23; 1
   x#1#23 Obj -14    
   x#1#24 m_job_;24; 1 b_capa_;1; 14
   x#1#24 Obj -12    
   x#1#25 b_capa_;1; 18 m_job_;25; 1
   x#1#25 Obj -24    
   x#1#26 b_capa_;1; 10 m_job_;26; 1
   x#1#26 Obj -20    
   x#1#27 m_job_;27; 1 b_capa_;1; 19
   x#1#27 Obj -15    
   x#1#28 m_job_;28; 1 b_capa_;1; 5
   x#1#28 Obj -22    
   x#1#29 b_capa_;1; 22 m_job_;29; 1
   x#1#29 Obj -15    
   x#1#30 m_job_;30; 1 b_capa_;1; 13
   x#1#30 Obj -12    
   x#2#1 Obj -14 m_job_;1; 1
   x#2#1 b_capa_;2; 24    
   x#2#2 m_job_;2; 1 b_capa_;2; 25
   x#2#2 Obj -15    
   x#2#3 b_capa_;2; 12 Obj -19
   x#2#3 m_job_;3; 1    
   x#2#4 m_job_;4; 1 b_capa_;2; 24
   x#2#4 Obj -16    
   x#2#5 m_job_;5; 1 b_capa_;2; 15
   x#2#5 Obj -22    
   x#2#6 Obj -18 m_job_;6; 1
   x#2#6 b_capa_;2; 21    
   x#2#7 Obj -13 m_job_;7; 1
   x#2#7 b_capa_;2; 20    
   x#2#8 b_capa_;2; 14 Obj -11
   x#2#8 m_job_;8; 1    
   x#2#9 Obj -21 m_job_;9; 1
   x#2#9 b_capa_;2; 25    
   x#2#10 b_capa_;2; 13 m_job_;10; 1
   x#2#10 Obj -24    
   x#2#11 Obj -14 b_capa_;2; 14
   x#2#11 m_job_;11; 1    
   x#2#12 Obj -23 m_job_;12; 1
   x#2#12 b_capa_;2; 6    
   x#2#13 m_job_;13; 1 Obj -21
   x#2#13 b_capa_;2; 16    
   x#2#14 Obj -20 m_job_;14; 1
   x#2#14 b_capa_;2; 21    
   x#2#15 Obj -13 b_capa_;2; 7
   x#2#15 m_job_;15; 1    
   x#2#16 b_capa_;2; 24 Obj -11
   x#2#16 m_job_;16; 1    
   x#2#17 b_capa_;2; 7 Obj -25
   x#2#17 m_job_;17; 1    
   x#2#18 b_capa_;2; 14 Obj -19
   x#2#18 m_job_;18; 1    
   x#2#19 m_job_;19; 1 Obj -21
   x#2#19 b_capa_;2; 7    
   x#2#20 b_capa_;2; 18 m_job_;20; 1
   x#2#20 Obj -14    
   x#2#21 m_job_;21; 1 b_capa_;2; 13
   x#2#21 Obj -18    
   x#2#22 b_capa_;2; 24 Obj -19
   x#2#22 m_job_;22; 1    
   x#2#23 m_job_;23; 1 Obj -15
   x#2#23 b_capa_;2; 22    
   x#2#24 b_capa_;2; 20 m_job_;24; 1
   x#2#24 Obj -25    
   x#2#25 b_capa_;2; 10 Obj -23
   x#2#25 m_job_;25; 1    
   x#2#26 b_capa_;2; 21 Obj -17
   x#2#26 m_job_;26; 1    
   x#2#27 b_capa_;2; 20 m_job_;27; 1
   x#2#27 Obj -19    
   x#2#28 b_capa_;2; 11 Obj -15
   x#2#28 m_job_;28; 1    
   x#2#29 b_capa_;2; 10 m_job_;29; 1
   x#2#29 Obj -13    
   x#2#30 Obj -25 m_job_;30; 1
   x#2#30 b_capa_;2; 24    
   x#3#1 m_job_;1; 1 b_capa_;3; 12
   x#3#1 Obj -25    
   x#3#2 Obj -23 m_job_;2; 1
   x#3#2 b_capa_;3; 13    
   x#3#3 Obj -19 m_job_;3; 1
   x#3#3 b_capa_;3; 7    
   x#3#4 Obj -17 b_capa_;3; 13
   x#3#4 m_job_;4; 1    
   x#3#5 m_job_;5; 1 Obj -11
   x#3#5 b_capa_;3; 16    
   x#3#6 m_job_;6; 1 b_capa_;3; 7
   x#3#6 Obj -19    
   x#3#7 m_job_;7; 1 Obj -16
   x#3#7 b_capa_;3; 14    
   x#3#8 b_capa_;3; 25 m_job_;8; 1
   x#3#8 Obj -25    
   x#3#9 b_capa_;3; 23 m_job_;9; 1
   x#3#9 Obj -11    
   x#3#10 b_capa_;3; 18 m_job_;10; 1
   x#3#10 Obj -23    
   x#3#11 Obj -15 b_capa_;3; 10
   x#3#11 m_job_;11; 1    
   x#3#12 m_job_;12; 1 Obj -17
   x#3#12 b_capa_;3; 14    
   x#3#13 b_capa_;3; 16 Obj -21
   x#3#13 m_job_;13; 1    
   x#3#14 m_job_;14; 1 Obj -13
   x#3#14 b_capa_;3; 24    
   x#3#15 m_job_;15; 1 b_capa_;3; 24
   x#3#15 Obj -18    
   x#3#16 b_capa_;3; 16 Obj -18
   x#3#16 m_job_;16; 1    
   x#3#17 Obj -22 b_capa_;3; 15
   x#3#17 m_job_;17; 1    
   x#3#18 b_capa_;3; 12 Obj -13
   x#3#18 m_job_;18; 1    
   x#3#19 Obj -20 b_capa_;3; 13
   x#3#19 m_job_;19; 1    
   x#3#20 m_job_;20; 1 b_capa_;3; 7
   x#3#20 Obj -23    
   x#3#21 b_capa_;3; 18 Obj -24
   x#3#21 m_job_;21; 1    
   x#3#22 Obj -16 m_job_;22; 1
   x#3#22 b_capa_;3; 16    
   x#3#23 b_capa_;3; 19 Obj -24
   x#3#23 m_job_;23; 1    
   x#3#24 m_job_;24; 1 Obj -16
   x#3#24 b_capa_;3; 12    
   x#3#25 m_job_;25; 1 b_capa_;3; 13
   x#3#25 Obj -23    
   x#3#26 m_job_;26; 1 Obj -15
   x#3#26 b_capa_;3; 22    
   x#3#27 m_job_;27; 1 Obj -10
   x#3#27 b_capa_;3; 24    
   x#3#28 b_capa_;3; 17 Obj -23
   x#3#28 m_job_;28; 1    
   x#3#29 Obj -23 m_job_;29; 1
   x#3#29 b_capa_;3; 12    
   x#3#30 Obj -14 b_capa_;3; 19
   x#3#30 m_job_;30; 1    
   x#4#1 Obj -11 b_capa_;4; 19
   x#4#1 m_job_;1; 1    
   x#4#2 m_job_;2; 1 Obj -16
   x#4#2 b_capa_;4; 5    
   x#4#3 b_capa_;4; 7 Obj -12
   x#4#3 m_job_;3; 1    
   x#4#4 m_job_;4; 1 b_capa_;4; 15
   x#4#4 Obj -16    
   x#4#5 Obj -13 b_capa_;4; 16
   x#4#5 m_job_;5; 1    
   x#4#6 Obj -11 m_job_;6; 1
   x#4#6 b_capa_;4; 9    
   x#4#7 b_capa_;4; 18 m_job_;7; 1
   x#4#7 Obj -18    
   x#4#8 b_capa_;4; 6 m_job_;8; 1
   x#4#8 Obj -14    
   x#4#9 Obj -21 m_job_;9; 1
   x#4#9 b_capa_;4; 7    
   x#4#10 b_capa_;4; 22 m_job_;10; 1
   x#4#10 Obj -15    
   x#4#11 b_capa_;4; 8 m_job_;11; 1
   x#4#11 Obj -11    
   x#4#12 b_capa_;4; 10 m_job_;12; 1
   x#4#12 Obj -10    
   x#4#13 m_job_;13; 1 Obj -20
   x#4#13 b_capa_;4; 14    
   x#4#14 Obj -13 b_capa_;4; 5
   x#4#14 m_job_;14; 1    
   x#4#15 Obj -13 m_job_;15; 1
   x#4#15 b_capa_;4; 9    
   x#4#16 Obj -17 b_capa_;4; 20
   x#4#16 m_job_;16; 1    
   x#4#17 m_job_;17; 1 b_capa_;4; 6
   x#4#17 Obj -17    
   x#4#18 m_job_;18; 1 b_capa_;4; 11
   x#4#18 Obj -13    
   x#4#19 b_capa_;4; 9 Obj -17
   x#4#19 m_job_;19; 1    
   x#4#20 b_capa_;4; 5 Obj -19
   x#4#20 m_job_;20; 1    
   x#4#21 m_job_;21; 1 Obj -20
   x#4#21 b_capa_;4; 6    
   x#4#22 Obj -17 b_capa_;4; 20
   x#4#22 m_job_;22; 1    
   x#4#23 b_capa_;4; 25 m_job_;23; 1
   x#4#23 Obj -14    
   x#4#24 m_job_;24; 1 Obj -21
   x#4#24 b_capa_;4; 17    
   x#4#25 m_job_;25; 1 Obj -23
   x#4#25 b_capa_;4; 19    
   x#4#26 m_job_;26; 1 b_capa_;4; 11
   x#4#26 Obj -17    
   x#4#27 b_capa_;4; 15 m_job_;27; 1
   x#4#27 Obj -19    
   x#4#28 m_job_;28; 1 Obj -18
   x#4#28 b_capa_;4; 18    
   x#4#29 m_job_;29; 1 Obj -22
   x#4#29 b_capa_;4; 24    
   x#4#30 m_job_;30; 1 b_capa_;4; 7
   x#4#30 Obj -12    
   x#5#1 m_job_;1; 1 b_capa_;5; 10
   x#5#1 Obj -18    
   x#5#2 b_capa_;5; 15 m_job_;2; 1
   x#5#2 Obj -11    
   x#5#3 Obj -24 m_job_;3; 1
   x#5#3 b_capa_;5; 13    
   x#5#4 m_job_;4; 1 b_capa_;5; 24
   x#5#4 Obj -18    
   x#5#5 m_job_;5; 1 Obj -13
   x#5#5 b_capa_;5; 11    
   x#5#6 Obj -14 m_job_;6; 1
   x#5#6 b_capa_;5; 13    
   x#5#7 m_job_;7; 1 Obj -14
   x#5#7 b_capa_;5; 17    
   x#5#8 b_capa_;5; 6 Obj -14
   x#5#8 m_job_;8; 1    
   x#5#9 m_job_;9; 1 b_capa_;5; 9
   x#5#9 Obj -21    
   x#5#10 b_capa_;5; 19 Obj -19
   x#5#10 m_job_;10; 1    
   x#5#11 Obj -20 m_job_;11; 1
   x#5#11 b_capa_;5; 21    
   x#5#12 b_capa_;5; 21 Obj -25
   x#5#12 m_job_;12; 1    
   x#5#13 m_job_;13; 1 Obj -22
   x#5#13 b_capa_;5; 12    
   x#5#14 b_capa_;5; 14 Obj -18
   x#5#14 m_job_;14; 1    
   x#5#15 Obj -24 b_capa_;5; 18
   x#5#15 m_job_;15; 1    
   x#5#16 Obj -23 m_job_;16; 1
   x#5#16 b_capa_;5; 8    
   x#5#17 Obj -21 m_job_;17; 1
   x#5#17 b_capa_;5; 17    
   x#5#18 Obj -17 m_job_;18; 1
   x#5#18 b_capa_;5; 24    
   x#5#19 Obj -23 m_job_;19; 1
   x#5#19 b_capa_;5; 8    
   x#5#20 Obj -23 m_job_;20; 1
   x#5#20 b_capa_;5; 20    
   x#5#21 Obj -17 b_capa_;5; 15
   x#5#21 m_job_;21; 1    
   x#5#22 Obj -20 b_capa_;5; 18
   x#5#22 m_job_;22; 1    
   x#5#23 Obj -23 b_capa_;5; 25
   x#5#23 m_job_;23; 1    
   x#5#24 Obj -24 b_capa_;5; 19
   x#5#24 m_job_;24; 1    
   x#5#25 Obj -19 b_capa_;5; 7
   x#5#25 m_job_;25; 1    
   x#5#26 m_job_;26; 1 Obj -15
   x#5#26 b_capa_;5; 16    
   x#5#27 m_job_;27; 1 Obj -15
   x#5#27 b_capa_;5; 15    
   x#5#28 m_job_;28; 1 Obj -14
   x#5#28 b_capa_;5; 15    
   x#5#29 m_job_;29; 1 Obj -24
   x#5#29 b_capa_;5; 6    
   x#5#30 m_job_;30; 1 Obj -15
   x#5#30 b_capa_;5; 11    
   INTEND 'MARKER'   'INTEND'  
RHS  
   RHS m_job_;1; 1 m_job_;2; 1
   RHS m_job_;3; 1 m_job_;4; 1
   RHS m_job_;5; 1 m_job_;6; 1
   RHS m_job_;7; 1 m_job_;8; 1
   RHS m_job_;9; 1 m_job_;10; 1
   RHS m_job_;11; 1 m_job_;12; 1
   RHS m_job_;13; 1 m_job_;14; 1
   RHS m_job_;15; 1 m_job_;16; 1
   RHS m_job_;17; 1 m_job_;18; 1
   RHS m_job_;19; 1 m_job_;20; 1
   RHS m_job_;21; 1 m_job_;22; 1
   RHS m_job_;23; 1 m_job_;24; 1
   RHS m_job_;25; 1 m_job_;26; 1
   RHS m_job_;27; 1 m_job_;28; 1
   RHS m_job_;29; 1 m_job_;30; 1
   RHS b_capa_;1; 76 b_capa_;2; 80
   RHS b_capa_;3; 75 b_capa_;4; 62
   RHS b_capa_;5; 72    
BOUNDS  
 UP Bound x#1#1 1    
 UP Bound x#1#2 1    
 UP Bound x#1#3 1    
 UP Bound x#1#4 1    
 UP Bound x#1#5 1    
 UP Bound x#1#6 1    
 UP Bound x#1#7 1    
 UP Bound x#1#8 1    
 UP Bound x#1#9 1    
 UP Bound x#1#10 1    
 UP Bound x#1#11 1    
 UP Bound x#1#12 1    
 UP Bound x#1#13 1    
 UP Bound x#1#14 1    
 UP Bound x#1#15 1    
 UP Bound x#1#16 1    
 UP Bound x#1#17 1    
 UP Bound x#1#18 1    
 UP Bound x#1#19 1    
 UP Bound x#1#20 1    
 UP Bound x#1#21 1    
 UP Bound x#1#22 1    
 UP Bound x#1#23 1    
 UP Bound x#1#24 1    
 UP Bound x#1#25 1    
 UP Bound x#1#26 1    
 UP Bound x#1#27 1    
 UP Bound x#1#28 1    
 UP Bound x#1#29 1    
 UP Bound x#1#30 1    
 UP Bound x#2#1 1    
 UP Bound x#2#2 1    
 UP Bound x#2#3 1    
 UP Bound x#2#4 1    
 UP Bound x#2#5 1    
 UP Bound x#2#6 1    
 UP Bound x#2#7 1    
 UP Bound x#2#8 1    
 UP Bound x#2#9 1    
 UP Bound x#2#10 1    
 UP Bound x#2#11 1    
 UP Bound x#2#12 1    
 UP Bound x#2#13 1    
 UP Bound x#2#14 1    
 UP Bound x#2#15 1    
 UP Bound x#2#16 1    
 UP Bound x#2#17 1    
 UP Bound x#2#18 1    
 UP Bound x#2#19 1    
 UP Bound x#2#20 1    
 UP Bound x#2#21 1    
 UP Bound x#2#22 1    
 UP Bound x#2#23 1    
 UP Bound x#2#24 1    
 UP Bound x#2#25 1    
 UP Bound x#2#26 1    
 UP Bound x#2#27 1    
 UP Bound x#2#28 1    
 UP Bound x#2#29 1    
 UP Bound x#2#30 1    
 UP Bound x#3#1 1    
 UP Bound x#3#2 1    
 UP Bound x#3#3 1    
 UP Bound x#3#4 1    
 UP Bound x#3#5 1    
 UP Bound x#3#6 1    
 UP Bound x#3#7 1    
 UP Bound x#3#8 1    
 UP Bound x#3#9 1    
 UP Bound x#3#10 1    
 UP Bound x#3#11 1    
 UP Bound x#3#12 1    
 UP Bound x#3#13 1    
 UP Bound x#3#14 1    
 UP Bound x#3#15 1    
 UP Bound x#3#16 1    
 UP Bound x#3#17 1    
 UP Bound x#3#18 1    
 UP Bound x#3#19 1    
 UP Bound x#3#20 1    
 UP Bound x#3#21 1    
 UP Bound x#3#22 1    
 UP Bound x#3#23 1    
 UP Bound x#3#24 1    
 UP Bound x#3#25 1    
 UP Bound x#3#26 1    
 UP Bound x#3#27 1    
 UP Bound x#3#28 1    
 UP Bound x#3#29 1    
 UP Bound x#3#30 1    
 UP Bound x#4#1 1    
 UP Bound x#4#2 1    
 UP Bound x#4#3 1    
 UP Bound x#4#4 1    
 UP Bound x#4#5 1    
 UP Bound x#4#6 1    
 UP Bound x#4#7 1    
 UP Bound x#4#8 1    
 UP Bound x#4#9 1    
 UP Bound x#4#10 1    
 UP Bound x#4#11 1    
 UP Bound x#4#12 1    
 UP Bound x#4#13 1    
 UP Bound x#4#14 1    
 UP Bound x#4#15 1    
 UP Bound x#4#16 1    
 UP Bound x#4#17 1    
 UP Bound x#4#18 1    
 UP Bound x#4#19 1    
 UP Bound x#4#20 1    
 UP Bound x#4#21 1    
 UP Bound x#4#22 1    
 UP Bound x#4#23 1    
 UP Bound x#4#24 1    
 UP Bound x#4#25 1    
 UP Bound x#4#26 1    
 UP Bound x#4#27 1    
 UP Bound x#4#28 1    
 UP Bound x#4#29 1    
 UP Bound x#4#30 1    
 UP Bound x#5#1 1    
 UP Bound x#5#2 1    
 UP Bound x#5#3 1    
 UP Bound x#5#4 1    
 UP Bound x#5#5 1    
 UP Bound x#5#6 1    
 UP Bound x#5#7 1    
 UP Bound x#5#8 1    
 UP Bound x#5#9 1    
 UP Bound x#5#10 1    
 UP Bound x#5#11 1    
 UP Bound x#5#12 1    
 UP Bound x#5#13 1    
 UP Bound x#5#14 1    
 UP Bound x#5#15 1    
 UP Bound x#5#16 1    
 UP Bound x#5#17 1    
 UP Bound x#5#18 1    
 UP Bound x#5#19 1    
 UP Bound x#5#20 1    
 UP Bound x#5#21 1    
 UP Bound x#5#22 1    
 UP Bound x#5#23 1    
 UP Bound x#5#24 1    
 UP Bound x#5#25 1    
 UP Bound x#5#26 1    
 UP Bound x#5#27 1    
 UP Bound x#5#28 1    
 UP Bound x#5#29 1    
 UP Bound x#5#30 1    
ENDATA  
